p edge 40 188 15
v 1 5
v 1 29
v 5 9 12 28 31 35
v 4 11 16 19 30
v 5 2 10 13 25 38
v 2 4 36
v 1 18
v 3 15 26 37
v 2 17 27
v 4 6 7 22 32
v 2 33 34
v 1 40
v 4 20 23 24 39
v 3 3 14 21
v 2 1 8
e 1 5
e 1 8
e 1 12
e 1 19
e 1 21
e 1 23
e 1 28
e 1 29
e 1 32
e 1 35
e 2 3
e 2 6
e 2 8
e 2 25
e 2 26
e 2 27
e 2 32
e 2 33
e 2 39
e 3 18
e 3 19
e 3 22
e 3 25
e 3 26
e 3 27
e 3 32
e 3 38
e 4 6
e 4 9
e 4 13
e 4 16
e 4 18
e 4 19
e 4 21
e 4 22
e 4 25
e 4 27
e 4 29
e 4 35
e 4 38
e 5 8
e 5 9
e 5 10
e 5 13
e 5 19
e 5 33
e 5 36
e 6 11
e 6 13
e 6 14
e 6 21
e 6 26
e 6 28
e 6 37
e 6 38
e 6 40
e 7 9
e 7 13
e 7 28
e 7 33
e 7 35
e 7 40
e 8 11
e 8 13
e 8 15
e 8 19
e 8 20
e 8 23
e 8 29
e 8 33
e 8 37
e 8 38
e 9 17
e 9 23
e 9 26
e 9 32
e 9 34
e 9 38
e 9 39
e 10 16
e 10 20
e 10 23
e 10 33
e 10 34
e 11 12
e 11 16
e 11 18
e 11 25
e 11 26
e 11 31
e 11 32
e 12 13
e 12 17
e 12 19
e 12 22
e 12 26
e 12 29
e 12 32
e 12 33
e 12 37
e 12 38
e 12 39
e 13 14
e 13 16
e 13 18
e 13 21
e 13 28
e 13 32
e 13 34
e 13 39
e 14 17
e 14 18
e 14 22
e 14 23
e 14 27
e 14 30
e 14 31
e 14 34
e 14 37
e 14 38
e 15 16
e 15 17
e 15 32
e 15 33
e 15 34
e 15 39
e 15 40
e 16 17
e 16 22
e 16 24
e 16 29
e 16 33
e 16 34
e 16 37
e 17 20
e 17 32
e 17 33
e 18 21
e 18 22
e 18 24
e 18 28
e 19 23
e 19 27
e 19 40
e 20 25
e 20 28
e 20 35
e 20 36
e 20 38
e 21 22
e 21 23
e 21 29
e 21 31
e 21 33
e 21 35
e 22 29
e 22 34
e 22 37
e 23 26
e 23 29
e 23 32
e 23 34
e 23 35
e 24 26
e 25 32
e 25 33
e 25 34
e 27 28
e 27 32
e 27 38
e 29 32
e 29 37
e 29 39
e 30 32
e 30 36
e 30 39
e 30 40
e 31 33
e 31 36
e 31 37
e 32 34
e 32 36
e 33 39
e 33 40
e 35 37
e 35 39
e 37 38
e 37 40
